results/x-long/X-n139-k10.vrp_seed-16.out
13590	1317
