results/x-long/X-n139-k10.vrp_seed-16.vrp.sol
Route #1: 98 122 138 55 46 43 77 106 82 105 111 76 56
Route #2: 91 71 100 67 42 59 60 15 8 39 51 84 30 7
Route #3: 88 70 74 50 123 27 115 34 131 38 69 94 108 9
Route #4: 16 32 114 137 125 25 112 22 26 23 4 62 124
Route #5: 29 57 44 65 48 61 19 66 72 117 87 52 126 95
Route #6: 118 85 24 36 129 53 96 5 6 113 90 12 49 2 99
Route #7: 104 136 83 68 116 128 47 119 1 18 21 103 28 63
Route #8: 54 75 133 64 127 130 93 132 107 92 41 80 78 120 73
Route #9: 109 10 13 97 31 58 35 110 45 20 121 79
Route #10: 3 81 102 134 40 37 17 11 101 14 135 33 86 89
Cost 13590.000000